p cnf 112 192
-1 -2 -3 0
1 2 3 0
-2 -3 -4 0
2 3 4 0
-5 -6 -7 0
5 6 7 0
-6 -7 -8 0
6 7 8 0
-9 -10 -11 0
9 10 11 0
-10 -11 -12 0
10 11 12 0
-13 -14 -15 0
13 14 15 0
-14 -15 -16 0
14 15 16 0
-1 -5 -9 0
1 5 9 0
-5 -9 -13 0
5 9 13 0
-2 -6 -10 0
2 6 10 0
-6 -10 -14 0
6 10 14 0
-3 -7 -11 0
3 7 11 0
-7 -11 -15 0
7 11 15 0
-4 -8 -12 0
4 8 12 0
-8 -12 -16 0
8 12 16 0
1 2 0
-1 -2 0
3 4 0
-3 -4 0
5 6 0
-5 -6 0
7 8 0
-7 -8 0
9 10 0
-9 -10 0
11 12 0
-11 -12 0
13 14 0
-13 -14 0
15 16 0
-15 -16 0
17 18 0
-17 -18 0
19 20 0
-19 -20 0
21 22 0
-21 -22 0
23 24 0
-23 -24 0
25 26 0
-25 -26 0
27 28 0
-27 -28 0
29 30 0
-29 -30 0
31 32 0
-31 -32 0
1 2 0
-1 -2 0
9 10 0
-9 -10 0
17 18 0
-17 -18 0
25 26 0
-25 -26 0
3 4 0
-3 -4 0
11 12 0
-11 -12 0
19 20 0
-19 -20 0
27 28 0
-27 -28 0
5 6 0
-5 -6 0
13 14 0
-13 -14 0
21 22 0
-21 -22 0
29 30 0
-29 -30 0
7 8 0
-7 -8 0
15 16 0
-15 -16 0
23 24 0
-23 -24 0
31 32 0
-31 -32 0
-1 -5 0
1 5 0
-5 -9 0
5 9 0
-9 -13 0
9 13 0
-2 -6 0
2 6 0
-6 -10 0
6 10 0
-10 -14 0
10 14 0
-3 -7 0
3 7 0
-7 -11 0
7 11 0
-11 -15 0
11 15 0
-4 -8 0
4 8 0
-8 -12 0
8 12 0
-12 -16 0
12 16 0
